Route #1: 65 44 83 86 85 89 87 90 1 14 12 21 29 20 
Route #2: 15 19 17 16 13 10 11 
Route #3: 47 41 67 62 74 63 69 
Route #4: 26 27 2 18 32 33 38 31 24 
Route #5: 59 40 61 68 43 30 39 35 37 45 50 56 55 72 
Route #6: 51 53 58 57 54 60 48 49 64 66 
Route #7: 3 6 8 9 5 7 95 99 96 98 91 76 73 
Route #8: 88 70 79 80 78 71 77 81 82 84 
Route #9: 75 4 94 92 93 100 97 
Route #10: 22 25 42 46 52 36 34 28 23 
cost 1575.51
execution_time 31.716
